20	5
0	10	5	1	8	10	7	9	4	6	2	3
1	5	16	15	14	11	17
2	3	18	14	16
3	6	17	18	15	11	16	14
4	2	18	19
5	5	18	14	13	16	11
6	4	12	13	18	16
7	5	14	13	11	16	18
8	6	18	20	16	19	17	15
9	2	14	13
10	4	12	17	18	16
11	2	20	19
12	2	14	15
13	4	20	17	15	19
14	2	19	20
15	1	21
16	1	21
17	1	21
18	1	21
19	1	21
20	1	21
21	0
0	0	0	0	0	0	0
1	3	3	3	1	2	3
2	5	4	4	3	2	4
3	3	3	4	1	4	1
4	10	3	2	1	4	3
5	5	1	2	1	1	3
6	2	1	4	2	5	1
7	1	4	3	3	1	3
8	4	2	1	3	1	5
9	10	2	1	1	2	5
10	8	4	3	3	1	4
11	8	1	1	5	1	1
12	5	3	2	1	2	3
13	2	4	4	1	3	2
14	9	3	2	1	2	2
15	4	4	4	4	2	3
16	5	5	2	5	4	4
17	4	5	4	1	5	4
18	5	3	4	5	4	3
19	6	2	5	5	4	1
20	6	2	2	5	4	1
21	0	0	0	0	0	0
15	14	12	12	18
